c Optimised CNF encoding for 9x9 Sudoku
c Source: sudoku_9x9_17clue_01.txt
c Variables: 303  Clauses: 2890
p cnf 303 2890
1 2 3 4 5 6 7 0
8 9 10 11 12 13 14 0
15 16 17 18 0
19 20 21 22 23 0
24 25 26 27 28 29 0
30 31 32 33 34 0
35 36 37 38 39 40 41 0
42 43 44 45 46 0
47 48 49 50 51 0
52 53 54 55 56 0
57 58 59 0
60 61 62 63 0
64 65 66 67 68 0
69 70 71 72 73 0
74 75 76 77 78 79 80 0
81 82 83 84 85 0
86 87 88 89 90 91 0
92 93 94 95 96 0
97 98 99 100 101 102 103 0
104 105 106 107 0
108 109 110 111 112 113 0
114 115 116 117 118 119 0
120 121 122 123 124 0
125 126 127 128 0
129 130 131 132 133 0
134 135 136 137 0
138 139 140 141 142 0
143 144 145 146 147 0
148 149 150 151 152 153 0
154 155 156 157 158 159 160 0
161 162 163 0
164 165 166 167 168 0
169 170 171 172 173 0
174 175 176 177 0
178 179 180 181 182 0
183 184 185 186 0
187 188 189 190 191 192 0
193 194 195 196 0
197 198 199 200 201 0
202 203 204 205 206 0
207 208 209 210 211 0
212 213 214 215 216 0
217 218 219 220 221 0
222 223 224 225 226 0
227 228 229 230 0
231 232 0
233 234 235 236 0
237 238 239 240 0
241 242 243 244 245 0
246 247 248 249 250 0
251 252 253 254 255 0
256 257 258 259 0
260 261 262 0
263 264 265 266 0
267 268 269 270 0
271 272 273 274 275 0
276 277 278 279 280 0
281 282 283 284 0
285 286 287 288 0
289 290 291 292 0
293 294 295 0
296 297 298 299 0
300 301 302 303 0
-1 -2 0
-1 -3 0
-1 -4 0
-1 -5 0
-1 -6 0
-1 -7 0
-2 -3 0
-2 -4 0
-2 -5 0
-2 -6 0
-2 -7 0
-3 -4 0
-3 -5 0
-3 -6 0
-3 -7 0
-4 -5 0
-4 -6 0
-4 -7 0
-5 -6 0
-5 -7 0
-6 -7 0
-8 -9 0
-8 -10 0
-8 -11 0
-8 -12 0
-8 -13 0
-8 -14 0
-9 -10 0
-9 -11 0
-9 -12 0
-9 -13 0
-9 -14 0
-10 -11 0
-10 -12 0
-10 -13 0
-10 -14 0
-11 -12 0
-11 -13 0
-11 -14 0
-12 -13 0
-12 -14 0
-13 -14 0
-15 -16 0
-15 -17 0
-15 -18 0
-16 -17 0
-16 -18 0
-17 -18 0
-19 -20 0
-19 -21 0
-19 -22 0
-19 -23 0
-20 -21 0
-20 -22 0
-20 -23 0
-21 -22 0
-21 -23 0
-22 -23 0
-24 -25 0
-24 -26 0
-24 -27 0
-24 -28 0
-24 -29 0
-25 -26 0
-25 -27 0
-25 -28 0
-25 -29 0
-26 -27 0
-26 -28 0
-26 -29 0
-27 -28 0
-27 -29 0
-28 -29 0
-30 -31 0
-30 -32 0
-30 -33 0
-30 -34 0
-31 -32 0
-31 -33 0
-31 -34 0
-32 -33 0
-32 -34 0
-33 -34 0
-35 -36 0
-35 -37 0
-35 -38 0
-35 -39 0
-35 -40 0
-35 -41 0
-36 -37 0
-36 -38 0
-36 -39 0
-36 -40 0
-36 -41 0
-37 -38 0
-37 -39 0
-37 -40 0
-37 -41 0
-38 -39 0
-38 -40 0
-38 -41 0
-39 -40 0
-39 -41 0
-40 -41 0
-42 -43 0
-42 -44 0
-42 -45 0
-42 -46 0
-43 -44 0
-43 -45 0
-43 -46 0
-44 -45 0
-44 -46 0
-45 -46 0
-47 -48 0
-47 -49 0
-47 -50 0
-47 -51 0
-48 -49 0
-48 -50 0
-48 -51 0
-49 -50 0
-49 -51 0
-50 -51 0
-52 -53 0
-52 -54 0
-52 -55 0
-52 -56 0
-53 -54 0
-53 -55 0
-53 -56 0
-54 -55 0
-54 -56 0
-55 -56 0
-57 -58 0
-57 -59 0
-58 -59 0
-60 -61 0
-60 -62 0
-60 -63 0
-61 -62 0
-61 -63 0
-62 -63 0
-64 -65 0
-64 -66 0
-64 -67 0
-64 -68 0
-65 -66 0
-65 -67 0
-65 -68 0
-66 -67 0
-66 -68 0
-67 -68 0
-69 -70 0
-69 -71 0
-69 -72 0
-69 -73 0
-70 -71 0
-70 -72 0
-70 -73 0
-71 -72 0
-71 -73 0
-72 -73 0
-74 -75 0
-74 -76 0
-74 -77 0
-74 -78 0
-74 -79 0
-74 -80 0
-75 -76 0
-75 -77 0
-75 -78 0
-75 -79 0
-75 -80 0
-76 -77 0
-76 -78 0
-76 -79 0
-76 -80 0
-77 -78 0
-77 -79 0
-77 -80 0
-78 -79 0
-78 -80 0
-79 -80 0
-81 -82 0
-81 -83 0
-81 -84 0
-81 -85 0
-82 -83 0
-82 -84 0
-82 -85 0
-83 -84 0
-83 -85 0
-84 -85 0
-86 -87 0
-86 -88 0
-86 -89 0
-86 -90 0
-86 -91 0
-87 -88 0
-87 -89 0
-87 -90 0
-87 -91 0
-88 -89 0
-88 -90 0
-88 -91 0
-89 -90 0
-89 -91 0
-90 -91 0
-92 -93 0
-92 -94 0
-92 -95 0
-92 -96 0
-93 -94 0
-93 -95 0
-93 -96 0
-94 -95 0
-94 -96 0
-95 -96 0
-97 -98 0
-97 -99 0
-97 -100 0
-97 -101 0
-97 -102 0
-97 -103 0
-98 -99 0
-98 -100 0
-98 -101 0
-98 -102 0
-98 -103 0
-99 -100 0
-99 -101 0
-99 -102 0
-99 -103 0
-100 -101 0
-100 -102 0
-100 -103 0
-101 -102 0
-101 -103 0
-102 -103 0
-104 -105 0
-104 -106 0
-104 -107 0
-105 -106 0
-105 -107 0
-106 -107 0
-108 -109 0
-108 -110 0
-108 -111 0
-108 -112 0
-108 -113 0
-109 -110 0
-109 -111 0
-109 -112 0
-109 -113 0
-110 -111 0
-110 -112 0
-110 -113 0
-111 -112 0
-111 -113 0
-112 -113 0
-114 -115 0
-114 -116 0
-114 -117 0
-114 -118 0
-114 -119 0
-115 -116 0
-115 -117 0
-115 -118 0
-115 -119 0
-116 -117 0
-116 -118 0
-116 -119 0
-117 -118 0
-117 -119 0
-118 -119 0
-120 -121 0
-120 -122 0
-120 -123 0
-120 -124 0
-121 -122 0
-121 -123 0
-121 -124 0
-122 -123 0
-122 -124 0
-123 -124 0
-125 -126 0
-125 -127 0
-125 -128 0
-126 -127 0
-126 -128 0
-127 -128 0
-129 -130 0
-129 -131 0
-129 -132 0
-129 -133 0
-130 -131 0
-130 -132 0
-130 -133 0
-131 -132 0
-131 -133 0
-132 -133 0
-134 -135 0
-134 -136 0
-134 -137 0
-135 -136 0
-135 -137 0
-136 -137 0
-138 -139 0
-138 -140 0
-138 -141 0
-138 -142 0
-139 -140 0
-139 -141 0
-139 -142 0
-140 -141 0
-140 -142 0
-141 -142 0
-143 -144 0
-143 -145 0
-143 -146 0
-143 -147 0
-144 -145 0
-144 -146 0
-144 -147 0
-145 -146 0
-145 -147 0
-146 -147 0
-148 -149 0
-148 -150 0
-148 -151 0
-148 -152 0
-148 -153 0
-149 -150 0
-149 -151 0
-149 -152 0
-149 -153 0
-150 -151 0
-150 -152 0
-150 -153 0
-151 -152 0
-151 -153 0
-152 -153 0
-154 -155 0
-154 -156 0
-154 -157 0
-154 -158 0
-154 -159 0
-154 -160 0
-155 -156 0
-155 -157 0
-155 -158 0
-155 -159 0
-155 -160 0
-156 -157 0
-156 -158 0
-156 -159 0
-156 -160 0
-157 -158 0
-157 -159 0
-157 -160 0
-158 -159 0
-158 -160 0
-159 -160 0
-161 -162 0
-161 -163 0
-162 -163 0
-164 -165 0
-164 -166 0
-164 -167 0
-164 -168 0
-165 -166 0
-165 -167 0
-165 -168 0
-166 -167 0
-166 -168 0
-167 -168 0
-169 -170 0
-169 -171 0
-169 -172 0
-169 -173 0
-170 -171 0
-170 -172 0
-170 -173 0
-171 -172 0
-171 -173 0
-172 -173 0
-174 -175 0
-174 -176 0
-174 -177 0
-175 -176 0
-175 -177 0
-176 -177 0
-178 -179 0
-178 -180 0
-178 -181 0
-178 -182 0
-179 -180 0
-179 -181 0
-179 -182 0
-180 -181 0
-180 -182 0
-181 -182 0
-183 -184 0
-183 -185 0
-183 -186 0
-184 -185 0
-184 -186 0
-185 -186 0
-187 -188 0
-187 -189 0
-187 -190 0
-187 -191 0
-187 -192 0
-188 -189 0
-188 -190 0
-188 -191 0
-188 -192 0
-189 -190 0
-189 -191 0
-189 -192 0
-190 -191 0
-190 -192 0
-191 -192 0
-193 -194 0
-193 -195 0
-193 -196 0
-194 -195 0
-194 -196 0
-195 -196 0
-197 -198 0
-197 -199 0
-197 -200 0
-197 -201 0
-198 -199 0
-198 -200 0
-198 -201 0
-199 -200 0
-199 -201 0
-200 -201 0
-202 -203 0
-202 -204 0
-202 -205 0
-202 -206 0
-203 -204 0
-203 -205 0
-203 -206 0
-204 -205 0
-204 -206 0
-205 -206 0
-207 -208 0
-207 -209 0
-207 -210 0
-207 -211 0
-208 -209 0
-208 -210 0
-208 -211 0
-209 -210 0
-209 -211 0
-210 -211 0
-212 -213 0
-212 -214 0
-212 -215 0
-212 -216 0
-213 -214 0
-213 -215 0
-213 -216 0
-214 -215 0
-214 -216 0
-215 -216 0
-217 -218 0
-217 -219 0
-217 -220 0
-217 -221 0
-218 -219 0
-218 -220 0
-218 -221 0
-219 -220 0
-219 -221 0
-220 -221 0
-222 -223 0
-222 -224 0
-222 -225 0
-222 -226 0
-223 -224 0
-223 -225 0
-223 -226 0
-224 -225 0
-224 -226 0
-225 -226 0
-227 -228 0
-227 -229 0
-227 -230 0
-228 -229 0
-228 -230 0
-229 -230 0
-231 -232 0
-233 -234 0
-233 -235 0
-233 -236 0
-234 -235 0
-234 -236 0
-235 -236 0
-237 -238 0
-237 -239 0
-237 -240 0
-238 -239 0
-238 -240 0
-239 -240 0
-241 -242 0
-241 -243 0
-241 -244 0
-241 -245 0
-242 -243 0
-242 -244 0
-242 -245 0
-243 -244 0
-243 -245 0
-244 -245 0
-246 -247 0
-246 -248 0
-246 -249 0
-246 -250 0
-247 -248 0
-247 -249 0
-247 -250 0
-248 -249 0
-248 -250 0
-249 -250 0
-251 -252 0
-251 -253 0
-251 -254 0
-251 -255 0
-252 -253 0
-252 -254 0
-252 -255 0
-253 -254 0
-253 -255 0
-254 -255 0
-256 -257 0
-256 -258 0
-256 -259 0
-257 -258 0
-257 -259 0
-258 -259 0
-260 -261 0
-260 -262 0
-261 -262 0
-263 -264 0
-263 -265 0
-263 -266 0
-264 -265 0
-264 -266 0
-265 -266 0
-267 -268 0
-267 -269 0
-267 -270 0
-268 -269 0
-268 -270 0
-269 -270 0
-271 -272 0
-271 -273 0
-271 -274 0
-271 -275 0
-272 -273 0
-272 -274 0
-272 -275 0
-273 -274 0
-273 -275 0
-274 -275 0
-276 -277 0
-276 -278 0
-276 -279 0
-276 -280 0
-277 -278 0
-277 -279 0
-277 -280 0
-278 -279 0
-278 -280 0
-279 -280 0
-281 -282 0
-281 -283 0
-281 -284 0
-282 -283 0
-282 -284 0
-283 -284 0
-285 -286 0
-285 -287 0
-285 -288 0
-286 -287 0
-286 -288 0
-287 -288 0
-289 -290 0
-289 -291 0
-289 -292 0
-290 -291 0
-290 -292 0
-291 -292 0
-293 -294 0
-293 -295 0
-294 -295 0
-296 -297 0
-296 -298 0
-296 -299 0
-297 -298 0
-297 -299 0
-298 -299 0
-300 -301 0
-300 -302 0
-300 -303 0
-301 -302 0
-301 -303 0
-302 -303 0
1 8 35 0
2 9 15 19 24 0
10 30 36 0
3 11 16 20 25 37 0
4 12 21 26 31 38 0
5 17 22 27 32 39 0
6 13 18 28 33 40 0
7 14 23 29 34 41 0
47 52 64 0
42 53 57 60 69 0
43 48 54 61 65 70 0
44 49 58 62 66 71 0
45 50 55 59 67 72 0
46 51 56 63 68 73 0
97 0
74 81 86 108 114 0
75 87 92 98 0
76 88 93 99 109 115 0
77 82 89 94 100 104 110 116 0
78 83 95 101 105 111 117 0
79 84 90 102 106 112 118 0
80 85 91 96 103 107 113 119 0
154 0
120 125 129 134 138 148 155 0
121 130 135 139 143 149 0
140 144 156 0
122 126 131 150 157 0
136 141 145 151 158 0
123 127 132 137 146 152 159 0
124 128 133 142 147 153 160 0
161 164 178 183 0
165 169 174 179 0
166 170 0
167 171 175 180 184 0
162 172 176 181 185 0
163 168 173 177 182 186 0
187 193 197 212 217 0
188 198 202 207 213 0
199 203 208 218 0
189 200 204 0
190 194 209 214 219 0
191 195 205 210 215 220 0
192 196 201 206 211 216 221 0
222 246 0
231 233 237 241 0
227 234 238 0
223 228 235 239 242 247 0
224 232 236 240 243 248 0
225 229 244 249 0
226 230 245 250 0
251 271 276 0
252 256 260 263 0
264 267 272 0
265 268 277 0
253 257 261 269 273 278 0
254 258 266 270 274 279 0
255 259 262 275 280 0
281 285 0
286 289 0
290 296 300 0
282 287 291 293 297 301 0
283 292 294 298 302 0
284 288 295 299 303 0
-1 -8 0
-1 -35 0
-8 -35 0
-2 -9 0
-2 -15 0
-2 -19 0
-2 -24 0
-9 -15 0
-9 -19 0
-9 -24 0
-15 -19 0
-15 -24 0
-19 -24 0
-10 -30 0
-10 -36 0
-30 -36 0
-3 -11 0
-3 -16 0
-3 -20 0
-3 -25 0
-3 -37 0
-11 -16 0
-11 -20 0
-11 -25 0
-11 -37 0
-16 -20 0
-16 -25 0
-16 -37 0
-20 -25 0
-20 -37 0
-25 -37 0
-4 -12 0
-4 -21 0
-4 -26 0
-4 -31 0
-4 -38 0
-12 -21 0
-12 -26 0
-12 -31 0
-12 -38 0
-21 -26 0
-21 -31 0
-21 -38 0
-26 -31 0
-26 -38 0
-31 -38 0
-5 -17 0
-5 -22 0
-5 -27 0
-5 -32 0
-5 -39 0
-17 -22 0
-17 -27 0
-17 -32 0
-17 -39 0
-22 -27 0
-22 -32 0
-22 -39 0
-27 -32 0
-27 -39 0
-32 -39 0
-6 -13 0
-6 -18 0
-6 -28 0
-6 -33 0
-6 -40 0
-13 -18 0
-13 -28 0
-13 -33 0
-13 -40 0
-18 -28 0
-18 -33 0
-18 -40 0
-28 -33 0
-28 -40 0
-33 -40 0
-7 -14 0
-7 -23 0
-7 -29 0
-7 -34 0
-7 -41 0
-14 -23 0
-14 -29 0
-14 -34 0
-14 -41 0
-23 -29 0
-23 -34 0
-23 -41 0
-29 -34 0
-29 -41 0
-34 -41 0
-47 -52 0
-47 -64 0
-52 -64 0
-42 -53 0
-42 -57 0
-42 -60 0
-42 -69 0
-53 -57 0
-53 -60 0
-53 -69 0
-57 -60 0
-57 -69 0
-60 -69 0
-43 -48 0
-43 -54 0
-43 -61 0
-43 -65 0
-43 -70 0
-48 -54 0
-48 -61 0
-48 -65 0
-48 -70 0
-54 -61 0
-54 -65 0
-54 -70 0
-61 -65 0
-61 -70 0
-65 -70 0
-44 -49 0
-44 -58 0
-44 -62 0
-44 -66 0
-44 -71 0
-49 -58 0
-49 -62 0
-49 -66 0
-49 -71 0
-58 -62 0
-58 -66 0
-58 -71 0
-62 -66 0
-62 -71 0
-66 -71 0
-45 -50 0
-45 -55 0
-45 -59 0
-45 -67 0
-45 -72 0
-50 -55 0
-50 -59 0
-50 -67 0
-50 -72 0
-55 -59 0
-55 -67 0
-55 -72 0
-59 -67 0
-59 -72 0
-67 -72 0
-46 -51 0
-46 -56 0
-46 -63 0
-46 -68 0
-46 -73 0
-51 -56 0
-51 -63 0
-51 -68 0
-51 -73 0
-56 -63 0
-56 -68 0
-56 -73 0
-63 -68 0
-63 -73 0
-68 -73 0
-74 -81 0
-74 -86 0
-74 -108 0
-74 -114 0
-81 -86 0
-81 -108 0
-81 -114 0
-86 -108 0
-86 -114 0
-108 -114 0
-75 -87 0
-75 -92 0
-75 -98 0
-87 -92 0
-87 -98 0
-92 -98 0
-76 -88 0
-76 -93 0
-76 -99 0
-76 -109 0
-76 -115 0
-88 -93 0
-88 -99 0
-88 -109 0
-88 -115 0
-93 -99 0
-93 -109 0
-93 -115 0
-99 -109 0
-99 -115 0
-109 -115 0
-77 -82 0
-77 -89 0
-77 -94 0
-77 -100 0
-77 -104 0
-77 -110 0
-77 -116 0
-82 -89 0
-82 -94 0
-82 -100 0
-82 -104 0
-82 -110 0
-82 -116 0
-89 -94 0
-89 -100 0
-89 -104 0
-89 -110 0
-89 -116 0
-94 -100 0
-94 -104 0
-94 -110 0
-94 -116 0
-100 -104 0
-100 -110 0
-100 -116 0
-104 -110 0
-104 -116 0
-110 -116 0
-78 -83 0
-78 -95 0
-78 -101 0
-78 -105 0
-78 -111 0
-78 -117 0
-83 -95 0
-83 -101 0
-83 -105 0
-83 -111 0
-83 -117 0
-95 -101 0
-95 -105 0
-95 -111 0
-95 -117 0
-101 -105 0
-101 -111 0
-101 -117 0
-105 -111 0
-105 -117 0
-111 -117 0
-79 -84 0
-79 -90 0
-79 -102 0
-79 -106 0
-79 -112 0
-79 -118 0
-84 -90 0
-84 -102 0
-84 -106 0
-84 -112 0
-84 -118 0
-90 -102 0
-90 -106 0
-90 -112 0
-90 -118 0
-102 -106 0
-102 -112 0
-102 -118 0
-106 -112 0
-106 -118 0
-112 -118 0
-80 -85 0
-80 -91 0
-80 -96 0
-80 -103 0
-80 -107 0
-80 -113 0
-80 -119 0
-85 -91 0
-85 -96 0
-85 -103 0
-85 -107 0
-85 -113 0
-85 -119 0
-91 -96 0
-91 -103 0
-91 -107 0
-91 -113 0
-91 -119 0
-96 -103 0
-96 -107 0
-96 -113 0
-96 -119 0
-103 -107 0
-103 -113 0
-103 -119 0
-107 -113 0
-107 -119 0
-113 -119 0
-120 -125 0
-120 -129 0
-120 -134 0
-120 -138 0
-120 -148 0
-120 -155 0
-125 -129 0
-125 -134 0
-125 -138 0
-125 -148 0
-125 -155 0
-129 -134 0
-129 -138 0
-129 -148 0
-129 -155 0
-134 -138 0
-134 -148 0
-134 -155 0
-138 -148 0
-138 -155 0
-148 -155 0
-121 -130 0
-121 -135 0
-121 -139 0
-121 -143 0
-121 -149 0
-130 -135 0
-130 -139 0
-130 -143 0
-130 -149 0
-135 -139 0
-135 -143 0
-135 -149 0
-139 -143 0
-139 -149 0
-143 -149 0
-140 -144 0
-140 -156 0
-144 -156 0
-122 -126 0
-122 -131 0
-122 -150 0
-122 -157 0
-126 -131 0
-126 -150 0
-126 -157 0
-131 -150 0
-131 -157 0
-150 -157 0
-136 -141 0
-136 -145 0
-136 -151 0
-136 -158 0
-141 -145 0
-141 -151 0
-141 -158 0
-145 -151 0
-145 -158 0
-151 -158 0
-123 -127 0
-123 -132 0
-123 -137 0
-123 -146 0
-123 -152 0
-123 -159 0
-127 -132 0
-127 -137 0
-127 -146 0
-127 -152 0
-127 -159 0
-132 -137 0
-132 -146 0
-132 -152 0
-132 -159 0
-137 -146 0
-137 -152 0
-137 -159 0
-146 -152 0
-146 -159 0
-152 -159 0
-124 -128 0
-124 -133 0
-124 -142 0
-124 -147 0
-124 -153 0
-124 -160 0
-128 -133 0
-128 -142 0
-128 -147 0
-128 -153 0
-128 -160 0
-133 -142 0
-133 -147 0
-133 -153 0
-133 -160 0
-142 -147 0
-142 -153 0
-142 -160 0
-147 -153 0
-147 -160 0
-153 -160 0
-161 -164 0
-161 -178 0
-161 -183 0
-164 -178 0
-164 -183 0
-178 -183 0
-165 -169 0
-165 -174 0
-165 -179 0
-169 -174 0
-169 -179 0
-174 -179 0
-166 -170 0
-167 -171 0
-167 -175 0
-167 -180 0
-167 -184 0
-171 -175 0
-171 -180 0
-171 -184 0
-175 -180 0
-175 -184 0
-180 -184 0
-162 -172 0
-162 -176 0
-162 -181 0
-162 -185 0
-172 -176 0
-172 -181 0
-172 -185 0
-176 -181 0
-176 -185 0
-181 -185 0
-163 -168 0
-163 -173 0
-163 -177 0
-163 -182 0
-163 -186 0
-168 -173 0
-168 -177 0
-168 -182 0
-168 -186 0
-173 -177 0
-173 -182 0
-173 -186 0
-177 -182 0
-177 -186 0
-182 -186 0
-187 -193 0
-187 -197 0
-187 -212 0
-187 -217 0
-193 -197 0
-193 -212 0
-193 -217 0
-197 -212 0
-197 -217 0
-212 -217 0
-188 -198 0
-188 -202 0
-188 -207 0
-188 -213 0
-198 -202 0
-198 -207 0
-198 -213 0
-202 -207 0
-202 -213 0
-207 -213 0
-199 -203 0
-199 -208 0
-199 -218 0
-203 -208 0
-203 -218 0
-208 -218 0
-189 -200 0
-189 -204 0
-200 -204 0
-190 -194 0
-190 -209 0
-190 -214 0
-190 -219 0
-194 -209 0
-194 -214 0
-194 -219 0
-209 -214 0
-209 -219 0
-214 -219 0
-191 -195 0
-191 -205 0
-191 -210 0
-191 -215 0
-191 -220 0
-195 -205 0
-195 -210 0
-195 -215 0
-195 -220 0
-205 -210 0
-205 -215 0
-205 -220 0
-210 -215 0
-210 -220 0
-215 -220 0
-192 -196 0
-192 -201 0
-192 -206 0
-192 -211 0
-192 -216 0
-192 -221 0
-196 -201 0
-196 -206 0
-196 -211 0
-196 -216 0
-196 -221 0
-201 -206 0
-201 -211 0
-201 -216 0
-201 -221 0
-206 -211 0
-206 -216 0
-206 -221 0
-211 -216 0
-211 -221 0
-216 -221 0
-222 -246 0
-231 -233 0
-231 -237 0
-231 -241 0
-233 -237 0
-233 -241 0
-237 -241 0
-227 -234 0
-227 -238 0
-234 -238 0
-223 -228 0
-223 -235 0
-223 -239 0
-223 -242 0
-223 -247 0
-228 -235 0
-228 -239 0
-228 -242 0
-228 -247 0
-235 -239 0
-235 -242 0
-235 -247 0
-239 -242 0
-239 -247 0
-242 -247 0
-224 -232 0
-224 -236 0
-224 -240 0
-224 -243 0
-224 -248 0
-232 -236 0
-232 -240 0
-232 -243 0
-232 -248 0
-236 -240 0
-236 -243 0
-236 -248 0
-240 -243 0
-240 -248 0
-243 -248 0
-225 -229 0
-225 -244 0
-225 -249 0
-229 -244 0
-229 -249 0
-244 -249 0
-226 -230 0
-226 -245 0
-226 -250 0
-230 -245 0
-230 -250 0
-245 -250 0
-251 -271 0
-251 -276 0
-271 -276 0
-252 -256 0
-252 -260 0
-252 -263 0
-256 -260 0
-256 -263 0
-260 -263 0
-264 -267 0
-264 -272 0
-267 -272 0
-265 -268 0
-265 -277 0
-268 -277 0
-253 -257 0
-253 -261 0
-253 -269 0
-253 -273 0
-253 -278 0
-257 -261 0
-257 -269 0
-257 -273 0
-257 -278 0
-261 -269 0
-261 -273 0
-261 -278 0
-269 -273 0
-269 -278 0
-273 -278 0
-254 -258 0
-254 -266 0
-254 -270 0
-254 -274 0
-254 -279 0
-258 -266 0
-258 -270 0
-258 -274 0
-258 -279 0
-266 -270 0
-266 -274 0
-266 -279 0
-270 -274 0
-270 -279 0
-274 -279 0
-255 -259 0
-255 -262 0
-255 -275 0
-255 -280 0
-259 -262 0
-259 -275 0
-259 -280 0
-262 -275 0
-262 -280 0
-275 -280 0
-281 -285 0
-286 -289 0
-290 -296 0
-290 -300 0
-296 -300 0
-282 -287 0
-282 -291 0
-282 -293 0
-282 -297 0
-282 -301 0
-287 -291 0
-287 -293 0
-287 -297 0
-287 -301 0
-291 -293 0
-291 -297 0
-291 -301 0
-293 -297 0
-293 -301 0
-297 -301 0
-283 -292 0
-283 -294 0
-283 -298 0
-283 -302 0
-292 -294 0
-292 -298 0
-292 -302 0
-294 -298 0
-294 -302 0
-298 -302 0
-284 -288 0
-284 -295 0
-284 -299 0
-284 -303 0
-288 -295 0
-288 -299 0
-288 -303 0
-295 -299 0
-295 -303 0
-299 -303 0
222 251 0
1 74 120 187 252 281 0
2 75 121 188 0
3 42 76 189 0
4 43 77 122 190 223 253 282 0
5 44 78 224 254 283 0
6 45 79 123 191 225 284 0
7 46 80 124 192 226 255 0
81 125 161 193 256 0
47 0
48 82 126 194 257 0
49 83 258 0
50 84 127 162 195 0
51 85 128 163 196 259 0
8 86 129 260 285 0
9 87 130 0
10 52 227 286 0
11 53 88 0
12 54 89 131 228 261 287 0
13 55 90 132 229 288 0
14 56 91 133 230 262 0
134 263 0
15 135 231 264 0
16 57 265 0
17 58 136 232 266 0
18 59 137 0
138 164 197 0
19 92 139 165 198 233 0
140 199 234 0
20 60 93 166 200 0
21 61 94 235 0
22 62 95 141 167 236 0
23 63 96 142 168 201 0
97 0
24 98 143 169 202 237 267 0
144 203 238 289 0
25 99 170 204 268 290 0
26 100 239 269 291 0
27 101 145 171 240 270 292 0
28 102 146 172 205 0
29 103 147 173 206 0
271 0
174 207 272 0
30 64 208 0
31 65 104 209 273 293 0
32 66 105 175 274 294 0
33 67 106 176 210 295 0
34 68 107 177 211 275 0
108 148 178 212 0
149 179 213 241 0
69 109 296 0
70 110 150 214 242 297 0
71 111 151 180 243 298 0
72 112 152 181 215 244 299 0
73 113 153 182 216 245 0
154 246 276 0
35 114 155 183 217 0
36 156 218 0
37 115 277 300 0
38 116 157 219 247 278 301 0
39 117 158 184 248 279 302 0
40 118 159 185 220 249 303 0
41 119 160 186 221 250 280 0
-222 -251 0
-1 -74 0
-1 -120 0
-1 -187 0
-1 -252 0
-1 -281 0
-74 -120 0
-74 -187 0
-74 -252 0
-74 -281 0
-120 -187 0
-120 -252 0
-120 -281 0
-187 -252 0
-187 -281 0
-252 -281 0
-2 -75 0
-2 -121 0
-2 -188 0
-75 -121 0
-75 -188 0
-121 -188 0
-3 -42 0
-3 -76 0
-3 -189 0
-42 -76 0
-42 -189 0
-76 -189 0
-4 -43 0
-4 -77 0
-4 -122 0
-4 -190 0
-4 -223 0
-4 -253 0
-4 -282 0
-43 -77 0
-43 -122 0
-43 -190 0
-43 -223 0
-43 -253 0
-43 -282 0
-77 -122 0
-77 -190 0
-77 -223 0
-77 -253 0
-77 -282 0
-122 -190 0
-122 -223 0
-122 -253 0
-122 -282 0
-190 -223 0
-190 -253 0
-190 -282 0
-223 -253 0
-223 -282 0
-253 -282 0
-5 -44 0
-5 -78 0
-5 -224 0
-5 -254 0
-5 -283 0
-44 -78 0
-44 -224 0
-44 -254 0
-44 -283 0
-78 -224 0
-78 -254 0
-78 -283 0
-224 -254 0
-224 -283 0
-254 -283 0
-6 -45 0
-6 -79 0
-6 -123 0
-6 -191 0
-6 -225 0
-6 -284 0
-45 -79 0
-45 -123 0
-45 -191 0
-45 -225 0
-45 -284 0
-79 -123 0
-79 -191 0
-79 -225 0
-79 -284 0
-123 -191 0
-123 -225 0
-123 -284 0
-191 -225 0
-191 -284 0
-225 -284 0
-7 -46 0
-7 -80 0
-7 -124 0
-7 -192 0
-7 -226 0
-7 -255 0
-46 -80 0
-46 -124 0
-46 -192 0
-46 -226 0
-46 -255 0
-80 -124 0
-80 -192 0
-80 -226 0
-80 -255 0
-124 -192 0
-124 -226 0
-124 -255 0
-192 -226 0
-192 -255 0
-226 -255 0
-81 -125 0
-81 -161 0
-81 -193 0
-81 -256 0
-125 -161 0
-125 -193 0
-125 -256 0
-161 -193 0
-161 -256 0
-193 -256 0
-48 -82 0
-48 -126 0
-48 -194 0
-48 -257 0
-82 -126 0
-82 -194 0
-82 -257 0
-126 -194 0
-126 -257 0
-194 -257 0
-49 -83 0
-49 -258 0
-83 -258 0
-50 -84 0
-50 -127 0
-50 -162 0
-50 -195 0
-84 -127 0
-84 -162 0
-84 -195 0
-127 -162 0
-127 -195 0
-162 -195 0
-51 -85 0
-51 -128 0
-51 -163 0
-51 -196 0
-51 -259 0
-85 -128 0
-85 -163 0
-85 -196 0
-85 -259 0
-128 -163 0
-128 -196 0
-128 -259 0
-163 -196 0
-163 -259 0
-196 -259 0
-8 -86 0
-8 -129 0
-8 -260 0
-8 -285 0
-86 -129 0
-86 -260 0
-86 -285 0
-129 -260 0
-129 -285 0
-260 -285 0
-9 -87 0
-9 -130 0
-87 -130 0
-10 -52 0
-10 -227 0
-10 -286 0
-52 -227 0
-52 -286 0
-227 -286 0
-11 -53 0
-11 -88 0
-53 -88 0
-12 -54 0
-12 -89 0
-12 -131 0
-12 -228 0
-12 -261 0
-12 -287 0
-54 -89 0
-54 -131 0
-54 -228 0
-54 -261 0
-54 -287 0
-89 -131 0
-89 -228 0
-89 -261 0
-89 -287 0
-131 -228 0
-131 -261 0
-131 -287 0
-228 -261 0
-228 -287 0
-261 -287 0
-13 -55 0
-13 -90 0
-13 -132 0
-13 -229 0
-13 -288 0
-55 -90 0
-55 -132 0
-55 -229 0
-55 -288 0
-90 -132 0
-90 -229 0
-90 -288 0
-132 -229 0
-132 -288 0
-229 -288 0
-14 -56 0
-14 -91 0
-14 -133 0
-14 -230 0
-14 -262 0
-56 -91 0
-56 -133 0
-56 -230 0
-56 -262 0
-91 -133 0
-91 -230 0
-91 -262 0
-133 -230 0
-133 -262 0
-230 -262 0
-134 -263 0
-15 -135 0
-15 -231 0
-15 -264 0
-135 -231 0
-135 -264 0
-231 -264 0
-16 -57 0
-16 -265 0
-57 -265 0
-17 -58 0
-17 -136 0
-17 -232 0
-17 -266 0
-58 -136 0
-58 -232 0
-58 -266 0
-136 -232 0
-136 -266 0
-232 -266 0
-18 -59 0
-18 -137 0
-59 -137 0
-138 -164 0
-138 -197 0
-164 -197 0
-19 -92 0
-19 -139 0
-19 -165 0
-19 -198 0
-19 -233 0
-92 -139 0
-92 -165 0
-92 -198 0
-92 -233 0
-139 -165 0
-139 -198 0
-139 -233 0
-165 -198 0
-165 -233 0
-198 -233 0
-140 -199 0
-140 -234 0
-199 -234 0
-20 -60 0
-20 -93 0
-20 -166 0
-20 -200 0
-60 -93 0
-60 -166 0
-60 -200 0
-93 -166 0
-93 -200 0
-166 -200 0
-21 -61 0
-21 -94 0
-21 -235 0
-61 -94 0
-61 -235 0
-94 -235 0
-22 -62 0
-22 -95 0
-22 -141 0
-22 -167 0
-22 -236 0
-62 -95 0
-62 -141 0
-62 -167 0
-62 -236 0
-95 -141 0
-95 -167 0
-95 -236 0
-141 -167 0
-141 -236 0
-167 -236 0
-23 -63 0
-23 -96 0
-23 -142 0
-23 -168 0
-23 -201 0
-63 -96 0
-63 -142 0
-63 -168 0
-63 -201 0
-96 -142 0
-96 -168 0
-96 -201 0
-142 -168 0
-142 -201 0
-168 -201 0
-24 -98 0
-24 -143 0
-24 -169 0
-24 -202 0
-24 -237 0
-24 -267 0
-98 -143 0
-98 -169 0
-98 -202 0
-98 -237 0
-98 -267 0
-143 -169 0
-143 -202 0
-143 -237 0
-143 -267 0
-169 -202 0
-169 -237 0
-169 -267 0
-202 -237 0
-202 -267 0
-237 -267 0
-144 -203 0
-144 -238 0
-144 -289 0
-203 -238 0
-203 -289 0
-238 -289 0
-25 -99 0
-25 -170 0
-25 -204 0
-25 -268 0
-25 -290 0
-99 -170 0
-99 -204 0
-99 -268 0
-99 -290 0
-170 -204 0
-170 -268 0
-170 -290 0
-204 -268 0
-204 -290 0
-268 -290 0
-26 -100 0
-26 -239 0
-26 -269 0
-26 -291 0
-100 -239 0
-100 -269 0
-100 -291 0
-239 -269 0
-239 -291 0
-269 -291 0
-27 -101 0
-27 -145 0
-27 -171 0
-27 -240 0
-27 -270 0
-27 -292 0
-101 -145 0
-101 -171 0
-101 -240 0
-101 -270 0
-101 -292 0
-145 -171 0
-145 -240 0
-145 -270 0
-145 -292 0
-171 -240 0
-171 -270 0
-171 -292 0
-240 -270 0
-240 -292 0
-270 -292 0
-28 -102 0
-28 -146 0
-28 -172 0
-28 -205 0
-102 -146 0
-102 -172 0
-102 -205 0
-146 -172 0
-146 -205 0
-172 -205 0
-29 -103 0
-29 -147 0
-29 -173 0
-29 -206 0
-103 -147 0
-103 -173 0
-103 -206 0
-147 -173 0
-147 -206 0
-173 -206 0
-174 -207 0
-174 -272 0
-207 -272 0
-30 -64 0
-30 -208 0
-64 -208 0
-31 -65 0
-31 -104 0
-31 -209 0
-31 -273 0
-31 -293 0
-65 -104 0
-65 -209 0
-65 -273 0
-65 -293 0
-104 -209 0
-104 -273 0
-104 -293 0
-209 -273 0
-209 -293 0
-273 -293 0
-32 -66 0
-32 -105 0
-32 -175 0
-32 -274 0
-32 -294 0
-66 -105 0
-66 -175 0
-66 -274 0
-66 -294 0
-105 -175 0
-105 -274 0
-105 -294 0
-175 -274 0
-175 -294 0
-274 -294 0
-33 -67 0
-33 -106 0
-33 -176 0
-33 -210 0
-33 -295 0
-67 -106 0
-67 -176 0
-67 -210 0
-67 -295 0
-106 -176 0
-106 -210 0
-106 -295 0
-176 -210 0
-176 -295 0
-210 -295 0
-34 -68 0
-34 -107 0
-34 -177 0
-34 -211 0
-34 -275 0
-68 -107 0
-68 -177 0
-68 -211 0
-68 -275 0
-107 -177 0
-107 -211 0
-107 -275 0
-177 -211 0
-177 -275 0
-211 -275 0
-108 -148 0
-108 -178 0
-108 -212 0
-148 -178 0
-148 -212 0
-178 -212 0
-149 -179 0
-149 -213 0
-149 -241 0
-179 -213 0
-179 -241 0
-213 -241 0
-69 -109 0
-69 -296 0
-109 -296 0
-70 -110 0
-70 -150 0
-70 -214 0
-70 -242 0
-70 -297 0
-110 -150 0
-110 -214 0
-110 -242 0
-110 -297 0
-150 -214 0
-150 -242 0
-150 -297 0
-214 -242 0
-214 -297 0
-242 -297 0
-71 -111 0
-71 -151 0
-71 -180 0
-71 -243 0
-71 -298 0
-111 -151 0
-111 -180 0
-111 -243 0
-111 -298 0
-151 -180 0
-151 -243 0
-151 -298 0
-180 -243 0
-180 -298 0
-243 -298 0
-72 -112 0
-72 -152 0
-72 -181 0
-72 -215 0
-72 -244 0
-72 -299 0
-112 -152 0
-112 -181 0
-112 -215 0
-112 -244 0
-112 -299 0
-152 -181 0
-152 -215 0
-152 -244 0
-152 -299 0
-181 -215 0
-181 -244 0
-181 -299 0
-215 -244 0
-215 -299 0
-244 -299 0
-73 -113 0
-73 -153 0
-73 -182 0
-73 -216 0
-73 -245 0
-113 -153 0
-113 -182 0
-113 -216 0
-113 -245 0
-153 -182 0
-153 -216 0
-153 -245 0
-182 -216 0
-182 -245 0
-216 -245 0
-154 -246 0
-154 -276 0
-246 -276 0
-35 -114 0
-35 -155 0
-35 -183 0
-35 -217 0
-114 -155 0
-114 -183 0
-114 -217 0
-155 -183 0
-155 -217 0
-183 -217 0
-36 -156 0
-36 -218 0
-156 -218 0
-37 -115 0
-37 -277 0
-37 -300 0
-115 -277 0
-115 -300 0
-277 -300 0
-38 -116 0
-38 -157 0
-38 -219 0
-38 -247 0
-38 -278 0
-38 -301 0
-116 -157 0
-116 -219 0
-116 -247 0
-116 -278 0
-116 -301 0
-157 -219 0
-157 -247 0
-157 -278 0
-157 -301 0
-219 -247 0
-219 -278 0
-219 -301 0
-247 -278 0
-247 -301 0
-278 -301 0
-39 -117 0
-39 -158 0
-39 -184 0
-39 -248 0
-39 -279 0
-39 -302 0
-117 -158 0
-117 -184 0
-117 -248 0
-117 -279 0
-117 -302 0
-158 -184 0
-158 -248 0
-158 -279 0
-158 -302 0
-184 -248 0
-184 -279 0
-184 -302 0
-248 -279 0
-248 -302 0
-279 -302 0
-40 -118 0
-40 -159 0
-40 -185 0
-40 -220 0
-40 -249 0
-40 -303 0
-118 -159 0
-118 -185 0
-118 -220 0
-118 -249 0
-118 -303 0
-159 -185 0
-159 -220 0
-159 -249 0
-159 -303 0
-185 -220 0
-185 -249 0
-185 -303 0
-220 -249 0
-220 -303 0
-249 -303 0
-41 -119 0
-41 -160 0
-41 -186 0
-41 -221 0
-41 -250 0
-41 -280 0
-119 -160 0
-119 -186 0
-119 -221 0
-119 -250 0
-119 -280 0
-160 -186 0
-160 -221 0
-160 -250 0
-160 -280 0
-186 -221 0
-186 -250 0
-186 -280 0
-221 -250 0
-221 -280 0
-250 -280 0
1 8 74 81 86 0
2 9 75 87 0
10 47 52 0
3 11 42 53 76 88 0
4 12 43 48 54 77 82 89 0
5 44 49 78 83 0
6 13 45 50 55 79 84 90 0
7 14 46 51 56 80 85 91 0
97 0
15 19 24 92 98 0
16 20 25 57 60 93 99 0
21 26 61 94 100 0
17 22 27 58 62 95 101 0
18 28 59 102 0
23 29 63 96 103 0
35 108 114 0
30 36 64 0
37 69 109 115 0
31 38 65 70 104 110 116 0
32 39 66 71 105 111 117 0
33 40 67 72 106 112 118 0
34 41 68 73 107 113 119 0
120 125 129 161 187 193 0
121 130 188 0
189 0
122 126 131 190 194 0
123 127 132 162 191 195 0
124 128 133 163 192 196 0
134 138 164 197 0
135 139 143 165 169 198 202 0
140 144 199 203 0
166 170 200 204 0
136 141 145 167 171 0
137 146 172 205 0
142 147 168 173 201 206 0
154 0
148 155 178 183 212 217 0
149 174 179 207 213 0
156 208 218 0
150 157 209 214 219 0
151 158 175 180 184 0
152 159 176 181 185 210 215 220 0
153 160 177 182 186 211 216 221 0
222 251 0
252 256 260 281 285 0
227 286 0
223 228 253 257 261 282 287 0
224 254 258 283 0
225 229 284 288 0
226 230 255 259 262 0
263 0
231 233 237 264 267 0
234 238 289 0
265 268 290 0
235 239 269 291 0
232 236 240 266 270 292 0
246 271 276 0
241 272 0
277 296 300 0
242 247 273 278 293 297 301 0
243 248 274 279 294 298 302 0
244 249 295 299 303 0
245 250 275 280 0
-1 -8 0
-1 -74 0
-1 -81 0
-1 -86 0
-8 -74 0
-8 -81 0
-8 -86 0
-74 -81 0
-74 -86 0
-81 -86 0
-2 -9 0
-2 -75 0
-2 -87 0
-9 -75 0
-9 -87 0
-75 -87 0
-10 -47 0
-10 -52 0
-47 -52 0
-3 -11 0
-3 -42 0
-3 -53 0
-3 -76 0
-3 -88 0
-11 -42 0
-11 -53 0
-11 -76 0
-11 -88 0
-42 -53 0
-42 -76 0
-42 -88 0
-53 -76 0
-53 -88 0
-76 -88 0
-4 -12 0
-4 -43 0
-4 -48 0
-4 -54 0
-4 -77 0
-4 -82 0
-4 -89 0
-12 -43 0
-12 -48 0
-12 -54 0
-12 -77 0
-12 -82 0
-12 -89 0
-43 -48 0
-43 -54 0
-43 -77 0
-43 -82 0
-43 -89 0
-48 -54 0
-48 -77 0
-48 -82 0
-48 -89 0
-54 -77 0
-54 -82 0
-54 -89 0
-77 -82 0
-77 -89 0
-82 -89 0
-5 -44 0
-5 -49 0
-5 -78 0
-5 -83 0
-44 -49 0
-44 -78 0
-44 -83 0
-49 -78 0
-49 -83 0
-78 -83 0
-6 -13 0
-6 -45 0
-6 -50 0
-6 -55 0
-6 -79 0
-6 -84 0
-6 -90 0
-13 -45 0
-13 -50 0
-13 -55 0
-13 -79 0
-13 -84 0
-13 -90 0
-45 -50 0
-45 -55 0
-45 -79 0
-45 -84 0
-45 -90 0
-50 -55 0
-50 -79 0
-50 -84 0
-50 -90 0
-55 -79 0
-55 -84 0
-55 -90 0
-79 -84 0
-79 -90 0
-84 -90 0
-7 -14 0
-7 -46 0
-7 -51 0
-7 -56 0
-7 -80 0
-7 -85 0
-7 -91 0
-14 -46 0
-14 -51 0
-14 -56 0
-14 -80 0
-14 -85 0
-14 -91 0
-46 -51 0
-46 -56 0
-46 -80 0
-46 -85 0
-46 -91 0
-51 -56 0
-51 -80 0
-51 -85 0
-51 -91 0
-56 -80 0
-56 -85 0
-56 -91 0
-80 -85 0
-80 -91 0
-85 -91 0
-15 -19 0
-15 -24 0
-15 -92 0
-15 -98 0
-19 -24 0
-19 -92 0
-19 -98 0
-24 -92 0
-24 -98 0
-92 -98 0
-16 -20 0
-16 -25 0
-16 -57 0
-16 -60 0
-16 -93 0
-16 -99 0
-20 -25 0
-20 -57 0
-20 -60 0
-20 -93 0
-20 -99 0
-25 -57 0
-25 -60 0
-25 -93 0
-25 -99 0
-57 -60 0
-57 -93 0
-57 -99 0
-60 -93 0
-60 -99 0
-93 -99 0
-21 -26 0
-21 -61 0
-21 -94 0
-21 -100 0
-26 -61 0
-26 -94 0
-26 -100 0
-61 -94 0
-61 -100 0
-94 -100 0
-17 -22 0
-17 -27 0
-17 -58 0
-17 -62 0
-17 -95 0
-17 -101 0
-22 -27 0
-22 -58 0
-22 -62 0
-22 -95 0
-22 -101 0
-27 -58 0
-27 -62 0
-27 -95 0
-27 -101 0
-58 -62 0
-58 -95 0
-58 -101 0
-62 -95 0
-62 -101 0
-95 -101 0
-18 -28 0
-18 -59 0
-18 -102 0
-28 -59 0
-28 -102 0
-59 -102 0
-23 -29 0
-23 -63 0
-23 -96 0
-23 -103 0
-29 -63 0
-29 -96 0
-29 -103 0
-63 -96 0
-63 -103 0
-96 -103 0
-35 -108 0
-35 -114 0
-108 -114 0
-30 -36 0
-30 -64 0
-36 -64 0
-37 -69 0
-37 -109 0
-37 -115 0
-69 -109 0
-69 -115 0
-109 -115 0
-31 -38 0
-31 -65 0
-31 -70 0
-31 -104 0
-31 -110 0
-31 -116 0
-38 -65 0
-38 -70 0
-38 -104 0
-38 -110 0
-38 -116 0
-65 -70 0
-65 -104 0
-65 -110 0
-65 -116 0
-70 -104 0
-70 -110 0
-70 -116 0
-104 -110 0
-104 -116 0
-110 -116 0
-32 -39 0
-32 -66 0
-32 -71 0
-32 -105 0
-32 -111 0
-32 -117 0
-39 -66 0
-39 -71 0
-39 -105 0
-39 -111 0
-39 -117 0
-66 -71 0
-66 -105 0
-66 -111 0
-66 -117 0
-71 -105 0
-71 -111 0
-71 -117 0
-105 -111 0
-105 -117 0
-111 -117 0
-33 -40 0
-33 -67 0
-33 -72 0
-33 -106 0
-33 -112 0
-33 -118 0
-40 -67 0
-40 -72 0
-40 -106 0
-40 -112 0
-40 -118 0
-67 -72 0
-67 -106 0
-67 -112 0
-67 -118 0
-72 -106 0
-72 -112 0
-72 -118 0
-106 -112 0
-106 -118 0
-112 -118 0
-34 -41 0
-34 -68 0
-34 -73 0
-34 -107 0
-34 -113 0
-34 -119 0
-41 -68 0
-41 -73 0
-41 -107 0
-41 -113 0
-41 -119 0
-68 -73 0
-68 -107 0
-68 -113 0
-68 -119 0
-73 -107 0
-73 -113 0
-73 -119 0
-107 -113 0
-107 -119 0
-113 -119 0
-120 -125 0
-120 -129 0
-120 -161 0
-120 -187 0
-120 -193 0
-125 -129 0
-125 -161 0
-125 -187 0
-125 -193 0
-129 -161 0
-129 -187 0
-129 -193 0
-161 -187 0
-161 -193 0
-187 -193 0
-121 -130 0
-121 -188 0
-130 -188 0
-122 -126 0
-122 -131 0
-122 -190 0
-122 -194 0
-126 -131 0
-126 -190 0
-126 -194 0
-131 -190 0
-131 -194 0
-190 -194 0
-123 -127 0
-123 -132 0
-123 -162 0
-123 -191 0
-123 -195 0
-127 -132 0
-127 -162 0
-127 -191 0
-127 -195 0
-132 -162 0
-132 -191 0
-132 -195 0
-162 -191 0
-162 -195 0
-191 -195 0
-124 -128 0
-124 -133 0
-124 -163 0
-124 -192 0
-124 -196 0
-128 -133 0
-128 -163 0
-128 -192 0
-128 -196 0
-133 -163 0
-133 -192 0
-133 -196 0
-163 -192 0
-163 -196 0
-192 -196 0
-134 -138 0
-134 -164 0
-134 -197 0
-138 -164 0
-138 -197 0
-164 -197 0
-135 -139 0
-135 -143 0
-135 -165 0
-135 -169 0
-135 -198 0
-135 -202 0
-139 -143 0
-139 -165 0
-139 -169 0
-139 -198 0
-139 -202 0
-143 -165 0
-143 -169 0
-143 -198 0
-143 -202 0
-165 -169 0
-165 -198 0
-165 -202 0
-169 -198 0
-169 -202 0
-198 -202 0
-140 -144 0
-140 -199 0
-140 -203 0
-144 -199 0
-144 -203 0
-199 -203 0
-166 -170 0
-166 -200 0
-166 -204 0
-170 -200 0
-170 -204 0
-200 -204 0
-136 -141 0
-136 -145 0
-136 -167 0
-136 -171 0
-141 -145 0
-141 -167 0
-141 -171 0
-145 -167 0
-145 -171 0
-167 -171 0
-137 -146 0
-137 -172 0
-137 -205 0
-146 -172 0
-146 -205 0
-172 -205 0
-142 -147 0
-142 -168 0
-142 -173 0
-142 -201 0
-142 -206 0
-147 -168 0
-147 -173 0
-147 -201 0
-147 -206 0
-168 -173 0
-168 -201 0
-168 -206 0
-173 -201 0
-173 -206 0
-201 -206 0
-148 -155 0
-148 -178 0
-148 -183 0
-148 -212 0
-148 -217 0
-155 -178 0
-155 -183 0
-155 -212 0
-155 -217 0
-178 -183 0
-178 -212 0
-178 -217 0
-183 -212 0
-183 -217 0
-212 -217 0
-149 -174 0
-149 -179 0
-149 -207 0
-149 -213 0
-174 -179 0
-174 -207 0
-174 -213 0
-179 -207 0
-179 -213 0
-207 -213 0
-156 -208 0
-156 -218 0
-208 -218 0
-150 -157 0
-150 -209 0
-150 -214 0
-150 -219 0
-157 -209 0
-157 -214 0
-157 -219 0
-209 -214 0
-209 -219 0
-214 -219 0
-151 -158 0
-151 -175 0
-151 -180 0
-151 -184 0
-158 -175 0
-158 -180 0
-158 -184 0
-175 -180 0
-175 -184 0
-180 -184 0
-152 -159 0
-152 -176 0
-152 -181 0
-152 -185 0
-152 -210 0
-152 -215 0
-152 -220 0
-159 -176 0
-159 -181 0
-159 -185 0
-159 -210 0
-159 -215 0
-159 -220 0
-176 -181 0
-176 -185 0
-176 -210 0
-176 -215 0
-176 -220 0
-181 -185 0
-181 -210 0
-181 -215 0
-181 -220 0
-185 -210 0
-185 -215 0
-185 -220 0
-210 -215 0
-210 -220 0
-215 -220 0
-153 -160 0
-153 -177 0
-153 -182 0
-153 -186 0
-153 -211 0
-153 -216 0
-153 -221 0
-160 -177 0
-160 -182 0
-160 -186 0
-160 -211 0
-160 -216 0
-160 -221 0
-177 -182 0
-177 -186 0
-177 -211 0
-177 -216 0
-177 -221 0
-182 -186 0
-182 -211 0
-182 -216 0
-182 -221 0
-186 -211 0
-186 -216 0
-186 -221 0
-211 -216 0
-211 -221 0
-216 -221 0
-222 -251 0
-252 -256 0
-252 -260 0
-252 -281 0
-252 -285 0
-256 -260 0
-256 -281 0
-256 -285 0
-260 -281 0
-260 -285 0
-281 -285 0
-227 -286 0
-223 -228 0
-223 -253 0
-223 -257 0
-223 -261 0
-223 -282 0
-223 -287 0
-228 -253 0
-228 -257 0
-228 -261 0
-228 -282 0
-228 -287 0
-253 -257 0
-253 -261 0
-253 -282 0
-253 -287 0
-257 -261 0
-257 -282 0
-257 -287 0
-261 -282 0
-261 -287 0
-282 -287 0
-224 -254 0
-224 -258 0
-224 -283 0
-254 -258 0
-254 -283 0
-258 -283 0
-225 -229 0
-225 -284 0
-225 -288 0
-229 -284 0
-229 -288 0
-284 -288 0
-226 -230 0
-226 -255 0
-226 -259 0
-226 -262 0
-230 -255 0
-230 -259 0
-230 -262 0
-255 -259 0
-255 -262 0
-259 -262 0
-231 -233 0
-231 -237 0
-231 -264 0
-231 -267 0
-233 -237 0
-233 -264 0
-233 -267 0
-237 -264 0
-237 -267 0
-264 -267 0
-234 -238 0
-234 -289 0
-238 -289 0
-265 -268 0
-265 -290 0
-268 -290 0
-235 -239 0
-235 -269 0
-235 -291 0
-239 -269 0
-239 -291 0
-269 -291 0
-232 -236 0
-232 -240 0
-232 -266 0
-232 -270 0
-232 -292 0
-236 -240 0
-236 -266 0
-236 -270 0
-236 -292 0
-240 -266 0
-240 -270 0
-240 -292 0
-266 -270 0
-266 -292 0
-270 -292 0
-246 -271 0
-246 -276 0
-271 -276 0
-241 -272 0
-277 -296 0
-277 -300 0
-296 -300 0
-242 -247 0
-242 -273 0
-242 -278 0
-242 -293 0
-242 -297 0
-242 -301 0
-247 -273 0
-247 -278 0
-247 -293 0
-247 -297 0
-247 -301 0
-273 -278 0
-273 -293 0
-273 -297 0
-273 -301 0
-278 -293 0
-278 -297 0
-278 -301 0
-293 -297 0
-293 -301 0
-297 -301 0
-243 -248 0
-243 -274 0
-243 -279 0
-243 -294 0
-243 -298 0
-243 -302 0
-248 -274 0
-248 -279 0
-248 -294 0
-248 -298 0
-248 -302 0
-274 -279 0
-274 -294 0
-274 -298 0
-274 -302 0
-279 -294 0
-279 -298 0
-279 -302 0
-294 -298 0
-294 -302 0
-298 -302 0
-244 -249 0
-244 -295 0
-244 -299 0
-244 -303 0
-249 -295 0
-249 -299 0
-249 -303 0
-295 -299 0
-295 -303 0
-299 -303 0
-245 -250 0
-245 -275 0
-245 -280 0
-250 -275 0
-250 -280 0
-275 -280 0
